100
32
5
21
8
32
23
6
23
5
23
7
12
12
6
7
18
4
18
8
27
4
27
7
13
9
26
30
17
6
32
29
31
2
32
21
25
9
24
29
3
28
30
4
17
27
24
22
16
8
25
9
29
25
31
6
7
6
4
11
5
1
31
13
2
14
27
24
29
16
26
21
3
8
11
19
27
32
22
17
12
21
16
3
11
11
5
3
8
4
19
18
31
26
3
10
32
7
3
14
19
16